(set-info :smt-lib-version 2.6)
(set-logic QF_UFBV)
(set-option :produce-models true)
(set-info :source |
Generated by: Pierre Bouvier
Generated on: 2021-03-12
Application: Automatic decomposition of Petri Nets into Automata Networks
Target solver: Boolector, CVC4, Yices, Z3
Publications:

[1] Pierre Bouvier, Hubert Garavel, and Hernan Ponce de Leon.
    "Automatic Decomposition of Petri Nets into Automata Networks -
    A Synthetic Account". Proceedings PETRI NETS 2020, LNCS 12152,
    Springer. https://doi.org/10.1007/978-3-030-51831-8_1

[2] Hubert Garavel. "Nested-Unit Petri Nets". Journal of Logical
    and Algebraic Methods in Programming, vol. 104, Elsevier, 2019. 
    https://doi.org/10.1016/j.jlamp.2018.11.005

In [1], several methods for decomposing an ordinary, safe Petri net
into a flat, unit-safe NUPN [2], have been proposed. These methods
are implemented in a complete tool chain involving SAT solvers, SMT
solvers, and tools for graph coloring and finding maximal cliques.
From a data set of 12,000+ NUPN models, 51,000+ SMT formulas have
been generated, out of which a subset of 1200 interesting formulas
to be used as SMT-LIB 2.6 benchmarks was carefully selected.

Original filename: vlsat3_d57.smt2

Specific parameters for the present benchmark:
- number of places: 22
- number of units: 10
- number of edges in the concurrency graph: 121
- number of variables: 0
- number of uninterpreted functions: 1
- number of asserts: 143
- total number of operators in asserts: 953
|)
(set-info :license "https://creativecommons.org/licenses/by/4.0/")
(set-info :category "industrial")
;(set-info :status unsat)

(declare-fun u_vlsat3_d57 ((_ BitVec 5)) (_ BitVec 10))
(assert (distinct (bvand (u_vlsat3_d57 #b00001) #b0000000001) #b0000000000))
(assert (distinct (bvand (u_vlsat3_d57 #b00010) #b0000000011) #b0000000000))
(assert (distinct (bvand (u_vlsat3_d57 #b00011) #b0000000111) #b0000000000))
(assert (distinct (bvand (u_vlsat3_d57 #b00100) #b0000001111) #b0000000000))
(assert (distinct (bvand (u_vlsat3_d57 #b00101) #b0000011111) #b0000000000))
(assert (distinct (bvand (u_vlsat3_d57 #b00110) #b0000111111) #b0000000000))
(assert (distinct (bvand (u_vlsat3_d57 #b00111) #b0001111111) #b0000000000))
(assert (distinct (bvand (u_vlsat3_d57 #b01000) #b0011111111) #b0000000000))
(assert (distinct (bvand (u_vlsat3_d57 #b01001) #b0111111111) #b0000000000))
(assert (distinct (u_vlsat3_d57 #b01010) #b0000000000))
(assert (distinct (u_vlsat3_d57 #b01011) #b0000000000))
(assert (distinct (u_vlsat3_d57 #b01100) #b0000000000))
(assert (distinct (u_vlsat3_d57 #b01101) #b0000000000))
(assert (distinct (u_vlsat3_d57 #b01110) #b0000000000))
(assert (distinct (u_vlsat3_d57 #b01111) #b0000000000))
(assert (distinct (u_vlsat3_d57 #b10000) #b0000000000))
(assert (distinct (u_vlsat3_d57 #b10001) #b0000000000))
(assert (distinct (u_vlsat3_d57 #b10010) #b0000000000))
(assert (distinct (u_vlsat3_d57 #b10011) #b0000000000))
(assert (distinct (u_vlsat3_d57 #b10100) #b0000000000))
(assert (distinct (u_vlsat3_d57 #b10101) #b0000000000))
(assert (distinct (u_vlsat3_d57 #b10110) #b0000000000))
(assert (= (bvand (u_vlsat3_d57 #b01110) (u_vlsat3_d57 #b10001)) #b0000000000))
(assert (= (bvand (u_vlsat3_d57 #b01010) (u_vlsat3_d57 #b10001)) #b0000000000))
(assert (= (bvand (u_vlsat3_d57 #b01111) (u_vlsat3_d57 #b10100)) #b0000000000))
(assert (= (bvand (u_vlsat3_d57 #b10001) (u_vlsat3_d57 #b10100)) #b0000000000))
(assert (= (bvand (u_vlsat3_d57 #b01101) (u_vlsat3_d57 #b10001)) #b0000000000))
(assert (= (bvand (u_vlsat3_d57 #b00010) (u_vlsat3_d57 #b10110)) #b0000000000))
(assert (= (bvand (u_vlsat3_d57 #b10010) (u_vlsat3_d57 #b10011)) #b0000000000))
(assert (= (bvand (u_vlsat3_d57 #b00100) (u_vlsat3_d57 #b10011)) #b0000000000))
(assert (= (bvand (u_vlsat3_d57 #b01001) (u_vlsat3_d57 #b10101)) #b0000000000))
(assert (= (bvand (u_vlsat3_d57 #b01110) (u_vlsat3_d57 #b10010)) #b0000000000))
(assert (= (bvand (u_vlsat3_d57 #b00101) (u_vlsat3_d57 #b10010)) #b0000000000))
(assert (= (bvand (u_vlsat3_d57 #b01011) (u_vlsat3_d57 #b10110)) #b0000000000))
(assert (= (bvand (u_vlsat3_d57 #b01010) (u_vlsat3_d57 #b10010)) #b0000000000))
(assert (= (bvand (u_vlsat3_d57 #b00111) (u_vlsat3_d57 #b10011)) #b0000000000))
(assert (= (bvand (u_vlsat3_d57 #b10000) (u_vlsat3_d57 #b10110)) #b0000000000))
(assert (= (bvand (u_vlsat3_d57 #b01100) (u_vlsat3_d57 #b10001)) #b0000000000))
(assert (= (bvand (u_vlsat3_d57 #b01101) (u_vlsat3_d57 #b10100)) #b0000000000))
(assert (= (bvand (u_vlsat3_d57 #b10010) (u_vlsat3_d57 #b10100)) #b0000000000))
(assert (= (bvand (u_vlsat3_d57 #b01000) (u_vlsat3_d57 #b01111)) #b0000000000))
(assert (= (bvand (u_vlsat3_d57 #b01001) (u_vlsat3_d57 #b01110)) #b0000000000))
(assert (= (bvand (u_vlsat3_d57 #b01010) (u_vlsat3_d57 #b01101)) #b0000000000))
(assert (= (bvand (u_vlsat3_d57 #b01000) (u_vlsat3_d57 #b10101)) #b0000000000))
(assert (= (bvand (u_vlsat3_d57 #b01001) (u_vlsat3_d57 #b10000)) #b0000000000))
(assert (= (bvand (u_vlsat3_d57 #b01110) (u_vlsat3_d57 #b01111)) #b0000000000))
(assert (= (bvand (u_vlsat3_d57 #b00101) (u_vlsat3_d57 #b10101)) #b0000000000))
(assert (= (bvand (u_vlsat3_d57 #b01011) (u_vlsat3_d57 #b10101)) #b0000000000))
(assert (= (bvand (u_vlsat3_d57 #b10000) (u_vlsat3_d57 #b10011)) #b0000000000))
(assert (= (bvand (u_vlsat3_d57 #b00111) (u_vlsat3_d57 #b10110)) #b0000000000))
(assert (= (bvand (u_vlsat3_d57 #b01100) (u_vlsat3_d57 #b10110)) #b0000000000))
(assert (= (bvand (u_vlsat3_d57 #b10001) (u_vlsat3_d57 #b10010)) #b0000000000))
(assert (= (bvand (u_vlsat3_d57 #b01010) (u_vlsat3_d57 #b01110)) #b0000000000))
(assert (= (bvand (u_vlsat3_d57 #b01000) (u_vlsat3_d57 #b10010)) #b0000000000))
(assert (= (bvand (u_vlsat3_d57 #b01110) (u_vlsat3_d57 #b10101)) #b0000000000))
(assert (= (bvand (u_vlsat3_d57 #b00100) (u_vlsat3_d57 #b10101)) #b0000000000))
(assert (= (bvand (u_vlsat3_d57 #b01011) (u_vlsat3_d57 #b01111)) #b0000000000))
(assert (= (bvand (u_vlsat3_d57 #b01001) (u_vlsat3_d57 #b10011)) #b0000000000))
(assert (= (bvand (u_vlsat3_d57 #b01111) (u_vlsat3_d57 #b10000)) #b0000000000))
(assert (= (bvand (u_vlsat3_d57 #b01011) (u_vlsat3_d57 #b10000)) #b0000000000))
(assert (= (bvand (u_vlsat3_d57 #b00111) (u_vlsat3_d57 #b10101)) #b0000000000))
(assert (= (bvand (u_vlsat3_d57 #b01110) (u_vlsat3_d57 #b10110)) #b0000000000))
(assert (= (bvand (u_vlsat3_d57 #b01100) (u_vlsat3_d57 #b01101)) #b0000000000))
(assert (= (bvand (u_vlsat3_d57 #b10100) (u_vlsat3_d57 #b10101)) #b0000000000))
(assert (= (bvand (u_vlsat3_d57 #b01101) (u_vlsat3_d57 #b10000)) #b0000000000))
(assert (= (bvand (u_vlsat3_d57 #b01001) (u_vlsat3_d57 #b10100)) #b0000000000))
(assert (= (bvand (u_vlsat3_d57 #b01110) (u_vlsat3_d57 #b10011)) #b0000000000))
(assert (= (bvand (u_vlsat3_d57 #b01010) (u_vlsat3_d57 #b10011)) #b0000000000))
(assert (= (bvand (u_vlsat3_d57 #b00111) (u_vlsat3_d57 #b10010)) #b0000000000))
(assert (= (bvand (u_vlsat3_d57 #b01100) (u_vlsat3_d57 #b10010)) #b0000000000))
(assert (= (bvand (u_vlsat3_d57 #b10001) (u_vlsat3_d57 #b10110)) #b0000000000))
(assert (= (bvand (u_vlsat3_d57 #b01101) (u_vlsat3_d57 #b10011)) #b0000000000))
(assert (= (bvand (u_vlsat3_d57 #b10010) (u_vlsat3_d57 #b10101)) #b0000000000))
(assert (= (bvand (u_vlsat3_d57 #b00011) (u_vlsat3_d57 #b10110)) #b0000000000))
(assert (= (bvand (u_vlsat3_d57 #b01000) (u_vlsat3_d57 #b10110)) #b0000000000))
(assert (= (bvand (u_vlsat3_d57 #b00110) (u_vlsat3_d57 #b10100)) #b0000000000))
(assert (= (bvand (u_vlsat3_d57 #b00101) (u_vlsat3_d57 #b10100)) #b0000000000))
(assert (= (bvand (u_vlsat3_d57 #b01011) (u_vlsat3_d57 #b10100)) #b0000000000))
(assert (= (bvand (u_vlsat3_d57 #b01010) (u_vlsat3_d57 #b10100)) #b0000000000))
(assert (= (bvand (u_vlsat3_d57 #b00111) (u_vlsat3_d57 #b10001)) #b0000000000))
(assert (= (bvand (u_vlsat3_d57 #b10000) (u_vlsat3_d57 #b10100)) #b0000000000))
(assert (= (bvand (u_vlsat3_d57 #b01101) (u_vlsat3_d57 #b10110)) #b0000000000))
(assert (= (bvand (u_vlsat3_d57 #b10010) (u_vlsat3_d57 #b10110)) #b0000000000))
(assert (= (bvand (u_vlsat3_d57 #b00011) (u_vlsat3_d57 #b10101)) #b0000000000))
(assert (= (bvand (u_vlsat3_d57 #b01010) (u_vlsat3_d57 #b01111)) #b0000000000))
(assert (= (bvand (u_vlsat3_d57 #b01000) (u_vlsat3_d57 #b10011)) #b0000000000))
(assert (= (bvand (u_vlsat3_d57 #b00100) (u_vlsat3_d57 #b10110)) #b0000000000))
(assert (= (bvand (u_vlsat3_d57 #b01011) (u_vlsat3_d57 #b01110)) #b0000000000))
(assert (= (bvand (u_vlsat3_d57 #b10011) (u_vlsat3_d57 #b10110)) #b0000000000))
(assert (= (bvand (u_vlsat3_d57 #b01001) (u_vlsat3_d57 #b10010)) #b0000000000))
(assert (= (bvand (u_vlsat3_d57 #b01111) (u_vlsat3_d57 #b10011)) #b0000000000))
(assert (= (bvand (u_vlsat3_d57 #b00110) (u_vlsat3_d57 #b10001)) #b0000000000))
(assert (= (bvand (u_vlsat3_d57 #b01011) (u_vlsat3_d57 #b10011)) #b0000000000))
(assert (= (bvand (u_vlsat3_d57 #b10000) (u_vlsat3_d57 #b10001)) #b0000000000))
(assert (= (bvand (u_vlsat3_d57 #b00111) (u_vlsat3_d57 #b10100)) #b0000000000))
(assert (= (bvand (u_vlsat3_d57 #b01100) (u_vlsat3_d57 #b10100)) #b0000000000))
(assert (= (bvand (u_vlsat3_d57 #b01000) (u_vlsat3_d57 #b10000)) #b0000000000))
(assert (= (bvand (u_vlsat3_d57 #b01011) (u_vlsat3_d57 #b01101)) #b0000000000))
(assert (= (bvand (u_vlsat3_d57 #b10011) (u_vlsat3_d57 #b10101)) #b0000000000))
(assert (= (bvand (u_vlsat3_d57 #b01111) (u_vlsat3_d57 #b10110)) #b0000000000))
(assert (= (bvand (u_vlsat3_d57 #b00110) (u_vlsat3_d57 #b10010)) #b0000000000))
(assert (= (bvand (u_vlsat3_d57 #b01100) (u_vlsat3_d57 #b01110)) #b0000000000))
(assert (= (bvand (u_vlsat3_d57 #b10100) (u_vlsat3_d57 #b10110)) #b0000000000))
(assert (= (bvand (u_vlsat3_d57 #b01101) (u_vlsat3_d57 #b01111)) #b0000000000))
(assert (= (bvand (u_vlsat3_d57 #b01110) (u_vlsat3_d57 #b10000)) #b0000000000))
(assert (= (bvand (u_vlsat3_d57 #b01010) (u_vlsat3_d57 #b10000)) #b0000000000))
(assert (= (bvand (u_vlsat3_d57 #b01111) (u_vlsat3_d57 #b10101)) #b0000000000))
(assert (= (bvand (u_vlsat3_d57 #b01100) (u_vlsat3_d57 #b10011)) #b0000000000))
(assert (= (bvand (u_vlsat3_d57 #b10001) (u_vlsat3_d57 #b10101)) #b0000000000))
(assert (= (bvand (u_vlsat3_d57 #b01101) (u_vlsat3_d57 #b10010)) #b0000000000))
(assert (= (bvand (u_vlsat3_d57 #b01001) (u_vlsat3_d57 #b10110)) #b0000000000))
(assert (= (bvand (u_vlsat3_d57 #b00110) (u_vlsat3_d57 #b10101)) #b0000000000))
(assert (= (bvand (u_vlsat3_d57 #b00101) (u_vlsat3_d57 #b10011)) #b0000000000))
(assert (= (bvand (u_vlsat3_d57 #b01010) (u_vlsat3_d57 #b10101)) #b0000000000))
(assert (= (bvand (u_vlsat3_d57 #b00111) (u_vlsat3_d57 #b10000)) #b0000000000))
(assert (= (bvand (u_vlsat3_d57 #b10000) (u_vlsat3_d57 #b10101)) #b0000000000))
(assert (= (bvand (u_vlsat3_d57 #b01100) (u_vlsat3_d57 #b10000)) #b0000000000))
(assert (= (bvand (u_vlsat3_d57 #b01101) (u_vlsat3_d57 #b10101)) #b0000000000))
(assert (= (bvand (u_vlsat3_d57 #b01001) (u_vlsat3_d57 #b01111)) #b0000000000))
(assert (= (bvand (u_vlsat3_d57 #b00011) (u_vlsat3_d57 #b10100)) #b0000000000))
(assert (= (bvand (u_vlsat3_d57 #b01000) (u_vlsat3_d57 #b10100)) #b0000000000))
(assert (= (bvand (u_vlsat3_d57 #b01001) (u_vlsat3_d57 #b10001)) #b0000000000))
(assert (= (bvand (u_vlsat3_d57 #b01111) (u_vlsat3_d57 #b10010)) #b0000000000))
(assert (= (bvand (u_vlsat3_d57 #b00110) (u_vlsat3_d57 #b10110)) #b0000000000))
(assert (= (bvand (u_vlsat3_d57 #b00101) (u_vlsat3_d57 #b10110)) #b0000000000))
(assert (= (bvand (u_vlsat3_d57 #b01011) (u_vlsat3_d57 #b10010)) #b0000000000))
(assert (= (bvand (u_vlsat3_d57 #b01010) (u_vlsat3_d57 #b10110)) #b0000000000))
(assert (= (bvand (u_vlsat3_d57 #b10000) (u_vlsat3_d57 #b10010)) #b0000000000))
(check-sat)
(get-model)
(exit)
